====================================================================================================================
File name: 200_20_150_9_D5.def
Creation date: Tue Nov 25 16:29:04 CET 2014
Website: http://imopse.ii.pwr.edu.pl/ 
Reference: 
Myszkowski P. B., Skowronski M. E., Olech L., Oslizlo K., 
Hybrid Ant Colony Optimization in solving Multi-Skill Resource-Constrained Project Scheduling Problem, 
Soft Computing, DOI: DOI 10.1007/s00500-014-1455-x 
====================================================================================================================
====================================================================================================================
=====================================================IMPORTANT======================================================
====================================================================================================================
Lacking task identifiers is a result of transforming definitions from MPP to DEF format.
Those lacking ids reflects to the summary tasks, available in MS Project definition that have been removed here.
 Therefore number of precedence relations increased, as relations between summary task had to be multiplied
to all tasks that were included into summary ones. Both file definition formats are compatible with each other.
====================================================================================================================
The file is free from calendar restrictions, typical for .mpp format
====================================================================================================================
General characteristics:
Tasks: 165
Resources: 20
Precedence relations: 271
Number of skill types: 9
====================================================================================================================
ResourceID 	 Salary 	 Skills 
1	 	 	29.8	 	 Q8: 1 	  Q3: 0 	  Q5: 0 	  Q6: 2 	  Q1: 0 	  Q7: 1 	 
2	 	 	15.6	 	 Q2: 2 	  Q7: 1 	  Q0: 2 	  Q6: 0 	  Q5: 1 	  Q8: 2 	 
3	 	 	31.8	 	 Q5: 1 	  Q1: 1 	  Q8: 2 	  Q3: 0 	  Q6: 2 	  Q2: 2 	 
4	 	 	32.0	 	 Q2: 2 	  Q6: 1 	  Q4: 0 	  Q3: 1 	  Q1: 2 	  Q0: 1 	 
5	 	 	13.8	 	 Q7: 1 	  Q6: 2 	  Q4: 1 	  Q5: 1 	  Q8: 0 	  Q3: 1 	 
6	 	 	15.5	 	 Q3: 2 	  Q1: 1 	  Q5: 2 	  Q8: 0 	  Q7: 2 	  Q0: 1 	 
7	 	 	18.4	 	 Q4: 2 	  Q3: 0 	  Q2: 2 	  Q7: 0 	  Q6: 2 	  Q8: 1 	 
8	 	 	16.2	 	 Q2: 0 	  Q6: 2 	  Q3: 2 	  Q8: 2 	  Q0: 2 	  Q5: 2 	 
9	 	 	12.6	 	 Q7: 0 	  Q0: 1 	  Q8: 2 	  Q1: 0 	  Q5: 0 	  Q6: 0 	 
10	 	 	12.3	 	 Q0: 1 	  Q7: 0 	  Q4: 2 	  Q8: 2 	  Q5: 1 	  Q3: 1 	 
11	 	 	14.1	 	 Q6: 0 	  Q8: 1 	  Q5: 0 	  Q0: 2 	  Q3: 0 	  Q1: 2 	 
12	 	 	24.6	 	 Q8: 0 	  Q3: 2 	  Q5: 2 	  Q0: 1 	  Q1: 1 	  Q4: 1 	 
13	 	 	36.1	 	 Q0: 0 	  Q6: 1 	  Q2: 0 	  Q4: 2 	  Q8: 1 	  Q5: 2 	 
14	 	 	34.3	 	 Q0: 2 	  Q4: 1 	  Q6: 2 	  Q3: 0 	  Q5: 2 	  Q8: 2 	 
15	 	 	37.5	 	 Q5: 0 	  Q7: 0 	  Q2: 0 	  Q1: 0 	  Q4: 2 	  Q8: 1 	 
16	 	 	17.8	 	 Q3: 1 	  Q4: 2 	  Q1: 1 	  Q5: 0 	  Q6: 0 	  Q7: 1 	 
17	 	 	25.3	 	 Q1: 2 	  Q8: 1 	  Q6: 2 	  Q5: 0 	  Q3: 2 	  Q0: 1 	 
18	 	 	12.7	 	 Q1: 2 	  Q2: 2 	  Q0: 2 	  Q7: 2 	  Q8: 1 	  Q3: 1 	 
19	 	 	26.6	 	 Q6: 1 	  Q7: 0 	  Q8: 0 	  Q0: 2 	  Q5: 1 	  Q4: 2 	 
20	 	 	38.2	 	 Q5: 1 	  Q3: 1 	  Q0: 1 	  Q1: 1 	  Q4: 1 	  Q8: 1 	 
====================================================================================================================
TaskID 	 Duration 	 Skill 	 Predecessor IDs 
1	 	 	26	 Q0: 2
2	 	 	23	 Q7: 0
3	 	 	17	 Q7: 1
4	 	 	30	 Q3: 0	 	3
5	 	 	31	 Q1: 2	 	4	1
6	 	 	21	 Q4: 2	 	5
7	 	 	25	 Q5: 1	 	6
8	 	 	36	 Q7: 0	 	6
9	 	 	37	 Q6: 1	 	8	6
10	 	 	36	 Q3: 2	 	6
11	 	 	38	 Q8: 1	 	10	6
12	 	 	9	 Q3: 0	 	6
13	 	 	22	 Q1: 1	 	12	6
14	 	 	36	 Q5: 2	 	13	12
15	 	 	12	 Q0: 1	 	14	
16	 	 	18	 Q6: 2	 	15	
17	 	 	39	 Q8: 0	 	16	
18	 	 	28	 Q6: 1	 	17	
19	 	 	37	 Q0: 1	 	17	
20	 	 	28	 Q3: 2	 	19	17
21	 	 	20	 Q3: 0
22	 	 	19	 Q4: 1	 	7	21
23	 	 	39	 Q3: 1	 	22	
24	 	 	38	 Q5: 1	 	23	9
25	 	 	28	 Q7: 2	 	24	
26	 	 	33	 Q4: 2	 	18	
27	 	 	11	 Q1: 2	 	26	18
28	 	 	20	 Q1: 0	 	27	
29	 	 	24	 Q8: 0
30	 	 	35	 Q3: 2	 	29	
31	 	 	11	 Q8: 0	 	29	
32	 	 	24	 Q3: 0	 	31	29
33	 	 	13	 Q7: 0	 	32	29
34	 	 	30	 Q8: 2
35	 	 	21	 Q1: 0	 	34	
36	 	 	29	 Q0: 2	 	35	28
37	 	 	28	 Q3: 0	 	36	
38	 	 	19	 Q3: 1
39	 	 	18	 Q7: 2	 	23	
40	 	 	20	 Q7: 1	 	39	
41	 	 	37	 Q6: 0	 	39	
42	 	 	23	 Q1: 2	 	39	
43	 	 	23	 Q3: 0
44	 	 	22	 Q6: 2	 	37	35
45	 	 	18	 Q5: 1	 	39	44
46	 	 	15	 Q5: 1	 	44	
47	 	 	14	 Q8: 0	 	40	
48	 	 	35	 Q8: 1	 	47	
49	 	 	31	 Q5: 1	 	48	
50	 	 	10	 Q1: 0
51	 	 	12	 Q5: 2	 	37	41	50
52	 	 	37	 Q4: 1	 	46	
53	 	 	35	 Q7: 2	 	46	43	52
54	 	 	26	 Q1: 0	 	53	
55	 	 	17	 Q4: 0	 	54	47
56	 	 	36	 Q4: 2	 	42	54	47
57	 	 	24	 Q4: 1	 	54	47
58	 	 	19	 Q0: 1	 	51	
59	 	 	22	 Q1: 0
60	 	 	14	 Q8: 0
61	 	 	24	 Q0: 2	 	60	
62	 	 	20	 Q1: 0	 	61	
63	 	 	23	 Q2: 0	 	62	
64	 	 	24	 Q7: 2	 	63	62
65	 	 	25	 Q5: 0	 	49	
66	 	 	35	 Q6: 2	 	50	57	65
67	 	 	10	 Q3: 0	 	66	
68	 	 	31	 Q1: 2	 	67	
69	 	 	32	 Q3: 1	 	55	
70	 	 	34	 Q4: 2
71	 	 	15	 Q3: 2	 	70	
72	 	 	29	 Q7: 0	 	67	71
73	 	 	37	 Q6: 2	 	71	
74	 	 	40	 Q7: 0	 	73	71
75	 	 	31	 Q5: 2	 	74	71
76	 	 	28	 Q8: 2	 	75	71
77	 	 	22	 Q7: 1	 	71	
78	 	 	30	 Q4: 1	 	77	71
79	 	 	29	 Q5: 0	 	72	
80	 	 	11	 Q4: 2	 	79	
81	 	 	17	 Q8: 1
82	 	 	34	 Q5: 0
83	 	 	29	 Q0: 2	 	68	
84	 	 	20	 Q5: 2	 	83	
85	 	 	33	 Q4: 2	 	72	
86	 	 	33	 Q1: 1	 	85	
87	 	 	30	 Q6: 0	 	86	78
88	 	 	37	 Q4: 1	 	87	
89	 	 	12	 Q0: 2	 	88	87	
90	 	 	18	 Q7: 0	 	81	87	
91	 	 	19	 Q6: 2	 	87	
92	 	 	31	 Q6: 1	 	87	
93	 	 	39	 Q3: 2	 	87	
94	 	 	37	 Q6: 0	 	93	87	
95	 	 	26	 Q7: 1	 	94	
96	 	 	18	 Q3: 1	 	95	
97	 	 	28	 Q1: 2	 	96	
98	 	 	21	 Q7: 1
99	 	 	34	 Q4: 2
100	 	 	39	 Q7: 0	 	97	
101	 	 	34	 Q5: 0
102	 	 	18	 Q0: 2
103	 	 	10	 Q4: 2	 	94	
104	 	 	26	 Q7: 1	 	94	
105	 	 	13	 Q2: 2	 	104	94	
106	 	 	10	 Q3: 1	 	95	97	
107	 	 	22	 Q6: 2	 	106	
108	 	 	11	 Q5: 0
109	 	 	30	 Q7: 1
110	 	 	10	 Q7: 1
111	 	 	11	 Q3: 0
112	 	 	11	 Q5: 1	 	97	111	
113	 	 	15	 Q5: 0	 	112	
114	 	 	15	 Q8: 1
115	 	 	26	 Q2: 0	 	114	
116	 	 	40	 Q3: 0	 	114	
117	 	 	36	 Q0: 2	 	116	114	
118	 	 	16	 Q8: 1
119	 	 	39	 Q8: 0	 	118	
120	 	 	13	 Q7: 0
121	 	 	16	 Q8: 0	 	112	109	
122	 	 	16	 Q4: 2	 	109	
123	 	 	10	 Q6: 0	 	122	111	109
124	 	 	13	 Q0: 1	 	122	111	109
125	 	 	31	 Q8: 0	 	124	109	122	111
126	 	 	16	 Q3: 2	 	125	124	109	122	111
127	 	 	19	 Q3: 1	 	126	124	109	122	111
128	 	 	11	 Q6: 2	 	127	122	111	109
129	 	 	26	 Q6: 2	 	128	122	111	109
130	 	 	36	 Q8: 2	 	129	122	111	109
131	 	 	27	 Q6: 1	 	130	122	111
132	 	 	13	 Q8: 2	 	131	130	122	111
133	 	 	20	 Q4: 0	 	132	130	122	111
134	 	 	29	 Q6: 1	 	122	111	133	124
135	 	 	24	 Q5: 1	 	134	122	111	133	124
136	 	 	40	 Q6: 1	 	122	111	133	124
137	 	 	35	 Q0: 1	 	136	133	122	111	124
138	 	 	22	 Q4: 1	 	126	137	122	111	133	124
139	 	 	37	 Q6: 0	 	138	137	122	111	133	124
140	 	 	11	 Q6: 2	 	133	122	111
141	 	 	36	 Q2: 2	 	132	140	133	122	111
142	 	 	10	 Q2: 2	 	122	111	
143	 	 	17	 Q6: 0	 	142	122	111
144	 	 	20	 Q5: 0	 	143	122	111
145	 	 	33	 Q4: 1	 	144	122	111
146	 	 	12	 Q1: 1	 	145	122	111
147	 	 	40	 Q0: 1	 	146	139	122	111
148	 	 	36	 Q2: 2	 	147	122	111
149	 	 	25	 Q8: 2	 	148	122	111
150	 	 	17	 Q6: 1	 	122	111	
151	 	 	38	 Q8: 1	 	150	122	111
152	 	 	26	 Q6: 2	 	151	137	122	111
153	 	 	23	 Q5: 0	 	122	111	
154	 	 	28	 Q8: 2	 	153	122	111
155	 	 	15	 Q4: 2	 	153	141	109
156	 	 	35	 Q0: 0	 	109	
157	 	 	39	 Q5: 2	 	156	
158	 	 	9	 Q2: 2	 	144	157	156
159	 	 	22	 Q8: 0	 	158	
160	 	 	39	 Q2: 2	 	159	
161	 	 	35	 Q6: 2	 	160	
162	 	 	20	 Q2: 0	 	161	
163	 	 	12	 Q7: 2	 	147	162	
164	 	 	40	 Q2: 0	 	162	
165	 	 	29	 Q0: 1	 	162	
====================================================================================================================
